(set-logic HORN)
(declare-datatypes ((Bool_0 0)) (((false_0 ) (true_0 ))))
(declare-fun diseqBool_0 (Bool_0 Bool_0) Bool)
(declare-fun and_0 (Bool_0 Bool_0 Bool_0) Bool)
(declare-fun or_0 (Bool_0 Bool_0 Bool_0) Bool)
(declare-datatypes ((A_0 0)) (((X_0 ) (Y_0 ))))
(declare-datatypes ((R_0 0)) (((Nil_0 ) (Eps_0 ) (Atom_0 (projAtom_0 A_0)) (Plus_0 (projPlus_0 R_0) (projPlus_1 R_0)) (Seq_0 (projSeq_0 R_0) (projSeq_1 R_0)) (Star_0 (projStar_0 R_0)))))
(declare-datatypes ((list_0 0)) (((nil_1 ) (cons_0 (head_0 A_0) (tail_0 list_0)))))
(declare-fun seq_1 (R_0 R_0 R_0) Bool)
(declare-fun rev_0 (R_0 R_0) Bool)
(declare-fun plus_1 (R_0 R_0 R_0) Bool)
(declare-fun eqA_0 (Bool_0 A_0 A_0) Bool)
(declare-fun eps_1 (Bool_0 R_0) Bool)
(declare-fun epsR_0 (R_0 R_0) Bool)
(declare-fun step_0 (R_0 R_0 A_0) Bool)
(declare-fun recognise_0 (Bool_0 R_0 list_0) Bool)
(declare-fun x_18 (list_0 list_0 list_0) Bool)
(declare-fun reverse_0 (list_0 list_0) Bool)
(assert (diseqBool_0 false_0 true_0))
(assert (diseqBool_0 true_0 false_0))
(assert (and_0 false_0 false_0 false_0))
(assert (and_0 false_0 true_0 false_0))
(assert (and_0 false_0 false_0 true_0))
(assert (and_0 true_0 true_0 true_0))
(assert (or_0 false_0 false_0 false_0))
(assert (or_0 true_0 true_0 false_0))
(assert (or_0 true_0 false_0 true_0))
(assert (or_0 true_0 true_0 true_0))
(assert (forall ((y_1 R_0))
	(seq_1 Nil_0 Nil_0 y_1)))
(assert (forall ((x_2 R_0) (x_249 A_0))
	(seq_1 Nil_0 (Atom_0 x_249) Nil_0)))
(assert (forall ((x_2 R_0))
	(seq_1 Nil_0 Eps_0 Nil_0)))
(assert (forall ((x_2 R_0) (x_250 R_0) (x_251 R_0))
	(seq_1 Nil_0 (Plus_0 x_250 x_251) Nil_0)))
(assert (forall ((x_2 R_0) (x_252 R_0) (x_253 R_0))
	(seq_1 Nil_0 (Seq_0 x_252 x_253) Nil_0)))
(assert (forall ((x_2 R_0) (x_254 R_0))
	(seq_1 Nil_0 (Star_0 x_254) Nil_0)))
(assert (forall ((x_3 R_0) (x_63 A_0) (x_2 R_0))
	(seq_1 (Atom_0 x_63) Eps_0 (Atom_0 x_63))))
(assert (forall ((x_3 R_0) (x_2 R_0))
	(seq_1 Eps_0 Eps_0 Eps_0)))
(assert (forall ((x_3 R_0) (x_64 R_0) (x_65 R_0) (x_2 R_0))
	(seq_1 (Plus_0 x_64 x_65) Eps_0 (Plus_0 x_64 x_65))))
(assert (forall ((x_3 R_0) (x_66 R_0) (x_67 R_0) (x_2 R_0))
	(seq_1 (Seq_0 x_66 x_67) Eps_0 (Seq_0 x_66 x_67))))
(assert (forall ((x_3 R_0) (x_68 R_0) (x_2 R_0))
	(seq_1 (Star_0 x_68) Eps_0 (Star_0 x_68))))
(assert (forall ((x_4 R_0) (x_27 A_0) (x_3 R_0) (x_2 R_0))
	(seq_1 (Atom_0 x_27) (Atom_0 x_27) Eps_0)))
(assert (forall ((x_4 R_0) (x_28 R_0) (x_29 R_0) (x_3 R_0) (x_2 R_0))
	(seq_1 (Plus_0 x_28 x_29) (Plus_0 x_28 x_29) Eps_0)))
(assert (forall ((x_4 R_0) (x_30 R_0) (x_31 R_0) (x_3 R_0) (x_2 R_0))
	(seq_1 (Seq_0 x_30 x_31) (Seq_0 x_30 x_31) Eps_0)))
(assert (forall ((x_4 R_0) (x_32 R_0) (x_3 R_0) (x_2 R_0))
	(seq_1 (Star_0 x_32) (Star_0 x_32) Eps_0)))
(assert (forall ((x_5 R_0) (x_21 A_0) (x_4 R_0) (x_33 A_0) (x_3 R_0) (x_2 R_0))
	(seq_1 (Seq_0 (Atom_0 x_33) (Atom_0 x_21)) (Atom_0 x_33) (Atom_0 x_21))))
(assert (forall ((x_5 R_0) (x_4 R_0) (x_34 R_0) (x_35 R_0) (x_3 R_0) (x_111 A_0) (x_2 R_0))
	(seq_1 (Seq_0 (Plus_0 x_34 x_35) (Atom_0 x_111)) (Plus_0 x_34 x_35) (Atom_0 x_111))))
(assert (forall ((x_5 R_0) (x_4 R_0) (x_36 R_0) (x_37 R_0) (x_3 R_0) (x_117 A_0) (x_2 R_0))
	(seq_1 (Seq_0 (Seq_0 x_36 x_37) (Atom_0 x_117)) (Seq_0 x_36 x_37) (Atom_0 x_117))))
(assert (forall ((x_5 R_0) (x_4 R_0) (x_38 R_0) (x_3 R_0) (x_123 A_0) (x_2 R_0))
	(seq_1 (Seq_0 (Star_0 x_38) (Atom_0 x_123)) (Star_0 x_38) (Atom_0 x_123))))
(assert (forall ((x_5 R_0) (x_4 R_0) (x_45 A_0) (x_3 R_0) (x_160 R_0) (x_161 R_0) (x_2 R_0))
	(seq_1 (Seq_0 (Atom_0 x_45) (Plus_0 x_160 x_161)) (Atom_0 x_45) (Plus_0 x_160 x_161))))
(assert (forall ((x_5 R_0) (x_4 R_0) (x_46 R_0) (x_47 R_0) (x_3 R_0) (x_172 R_0) (x_173 R_0) (x_2 R_0))
	(seq_1 (Seq_0 (Plus_0 x_46 x_47) (Plus_0 x_172 x_173)) (Plus_0 x_46 x_47) (Plus_0 x_172 x_173))))
(assert (forall ((x_5 R_0) (x_4 R_0) (x_48 R_0) (x_49 R_0) (x_3 R_0) (x_178 R_0) (x_179 R_0) (x_2 R_0))
	(seq_1 (Seq_0 (Seq_0 x_48 x_49) (Plus_0 x_178 x_179)) (Seq_0 x_48 x_49) (Plus_0 x_178 x_179))))
(assert (forall ((x_5 R_0) (x_4 R_0) (x_50 R_0) (x_3 R_0) (x_184 R_0) (x_185 R_0) (x_2 R_0))
	(seq_1 (Seq_0 (Star_0 x_50) (Plus_0 x_184 x_185)) (Star_0 x_50) (Plus_0 x_184 x_185))))
(assert (forall ((x_5 R_0) (x_4 R_0) (x_51 A_0) (x_3 R_0) (x_192 R_0) (x_193 R_0) (x_2 R_0))
	(seq_1 (Seq_0 (Atom_0 x_51) (Seq_0 x_192 x_193)) (Atom_0 x_51) (Seq_0 x_192 x_193))))
(assert (forall ((x_5 R_0) (x_4 R_0) (x_52 R_0) (x_53 R_0) (x_3 R_0) (x_204 R_0) (x_205 R_0) (x_2 R_0))
	(seq_1 (Seq_0 (Plus_0 x_52 x_53) (Seq_0 x_204 x_205)) (Plus_0 x_52 x_53) (Seq_0 x_204 x_205))))
(assert (forall ((x_5 R_0) (x_4 R_0) (x_54 R_0) (x_55 R_0) (x_3 R_0) (x_210 R_0) (x_211 R_0) (x_2 R_0))
	(seq_1 (Seq_0 (Seq_0 x_54 x_55) (Seq_0 x_210 x_211)) (Seq_0 x_54 x_55) (Seq_0 x_210 x_211))))
(assert (forall ((x_5 R_0) (x_4 R_0) (x_3 R_0) (x_216 R_0) (x_217 R_0) (x_2 R_0) (x_1028 R_0))
	(seq_1 (Seq_0 (Star_0 x_1028) (Seq_0 x_216 x_217)) (Star_0 x_1028) (Seq_0 x_216 x_217))))
(assert (forall ((x_5 R_0) (x_4 R_0) (x_3 R_0) (x_224 R_0) (x_2 R_0) (x_1059 A_0))
	(seq_1 (Seq_0 (Atom_0 x_1059) (Star_0 x_224)) (Atom_0 x_1059) (Star_0 x_224))))
(assert (forall ((x_5 R_0) (x_4 R_0) (x_3 R_0) (x_236 R_0) (x_2 R_0) (x_1120 R_0) (x_1121 R_0))
	(seq_1 (Seq_0 (Plus_0 x_1120 x_1121) (Star_0 x_236)) (Plus_0 x_1120 x_1121) (Star_0 x_236))))
(assert (forall ((x_5 R_0) (x_4 R_0) (x_3 R_0) (x_242 R_0) (x_2 R_0) (x_1152 R_0) (x_1153 R_0))
	(seq_1 (Seq_0 (Seq_0 x_1152 x_1153) (Star_0 x_242)) (Seq_0 x_1152 x_1153) (Star_0 x_242))))
(assert (forall ((x_5 R_0) (x_4 R_0) (x_3 R_0) (x_248 R_0) (x_2 R_0) (x_1184 R_0))
	(seq_1 (Seq_0 (Star_0 x_1184) (Star_0 x_248)) (Star_0 x_1184) (Star_0 x_248))))
(assert (forall ((x_2011 R_0) (a_2 R_0))
	(=> (rev_0 x_2011 a_2) (rev_0 (Star_0 x_2011) (Star_0 a_2)))))
(assert (forall ((x_2013 R_0) (x_2014 R_0) (c_0 R_0) (b_1 R_0))
	(=> (and (rev_0 x_2013 b_1) (rev_0 x_2014 c_0)) (rev_0 (Seq_0 x_2013 x_2014) (Seq_0 c_0 b_1)))))
(assert (forall ((x_2016 R_0) (x_2017 R_0) (a_1 R_0) (b_0 R_0))
	(=> (and (rev_0 x_2016 a_1) (rev_0 x_2017 b_0)) (rev_0 (Plus_0 x_2016 x_2017) (Plus_0 a_1 b_0)))))
(assert (forall ((x_7 R_0) (x_1185 A_0))
	(rev_0 (Atom_0 x_1185) (Atom_0 x_1185))))
(assert (forall ((x_7 R_0))
	(rev_0 Eps_0 Eps_0)))
(assert (forall ((x_7 R_0))
	(rev_0 Nil_0 Nil_0)))
(assert (forall ((x_2021 R_0))
	(plus_1 x_2021 Nil_0 x_2021)))
(assert (forall ((x_9 R_0) (x_1192 A_0))
	(plus_1 (Atom_0 x_1192) (Atom_0 x_1192) Nil_0)))
(assert (forall ((x_9 R_0))
	(plus_1 Eps_0 Eps_0 Nil_0)))
(assert (forall ((x_9 R_0) (x_1193 R_0) (x_1194 R_0))
	(plus_1 (Plus_0 x_1193 x_1194) (Plus_0 x_1193 x_1194) Nil_0)))
(assert (forall ((x_9 R_0) (x_1195 R_0) (x_1196 R_0))
	(plus_1 (Seq_0 x_1195 x_1196) (Seq_0 x_1195 x_1196) Nil_0)))
(assert (forall ((x_9 R_0) (x_1197 R_0))
	(plus_1 (Star_0 x_1197) (Star_0 x_1197) Nil_0)))
(assert (forall ((x_10 R_0) (x_1186 A_0) (x_9 R_0) (x_1198 A_0))
	(plus_1 (Plus_0 (Atom_0 x_1198) (Atom_0 x_1186)) (Atom_0 x_1198) (Atom_0 x_1186))))
(assert (forall ((x_10 R_0) (x_1186 A_0) (x_9 R_0))
	(plus_1 (Plus_0 Eps_0 (Atom_0 x_1186)) Eps_0 (Atom_0 x_1186))))
(assert (forall ((x_10 R_0) (x_1186 A_0) (x_9 R_0) (x_1199 R_0) (x_1200 R_0))
	(plus_1 (Plus_0 (Plus_0 x_1199 x_1200) (Atom_0 x_1186)) (Plus_0 x_1199 x_1200) (Atom_0 x_1186))))
(assert (forall ((x_10 R_0) (x_1186 A_0) (x_9 R_0) (x_1201 R_0) (x_1202 R_0))
	(plus_1 (Plus_0 (Seq_0 x_1201 x_1202) (Atom_0 x_1186)) (Seq_0 x_1201 x_1202) (Atom_0 x_1186))))
(assert (forall ((x_10 R_0) (x_1186 A_0) (x_9 R_0) (x_1203 R_0))
	(plus_1 (Plus_0 (Star_0 x_1203) (Atom_0 x_1186)) (Star_0 x_1203) (Atom_0 x_1186))))
(assert (forall ((x_10 R_0) (x_9 R_0) (x_1204 A_0))
	(plus_1 (Plus_0 (Atom_0 x_1204) Eps_0) (Atom_0 x_1204) Eps_0)))
(assert (forall ((x_10 R_0) (x_9 R_0))
	(plus_1 (Plus_0 Eps_0 Eps_0) Eps_0 Eps_0)))
(assert (forall ((x_10 R_0) (x_9 R_0) (x_1205 R_0) (x_1206 R_0))
	(plus_1 (Plus_0 (Plus_0 x_1205 x_1206) Eps_0) (Plus_0 x_1205 x_1206) Eps_0)))
(assert (forall ((x_10 R_0) (x_9 R_0) (x_1207 R_0) (x_1208 R_0))
	(plus_1 (Plus_0 (Seq_0 x_1207 x_1208) Eps_0) (Seq_0 x_1207 x_1208) Eps_0)))
(assert (forall ((x_10 R_0) (x_9 R_0) (x_1209 R_0))
	(plus_1 (Plus_0 (Star_0 x_1209) Eps_0) (Star_0 x_1209) Eps_0)))
(assert (forall ((x_10 R_0) (x_1187 R_0) (x_1188 R_0) (x_9 R_0) (x_1210 A_0))
	(plus_1 (Plus_0 (Atom_0 x_1210) (Plus_0 x_1187 x_1188)) (Atom_0 x_1210) (Plus_0 x_1187 x_1188))))
(assert (forall ((x_10 R_0) (x_1187 R_0) (x_1188 R_0) (x_9 R_0))
	(plus_1 (Plus_0 Eps_0 (Plus_0 x_1187 x_1188)) Eps_0 (Plus_0 x_1187 x_1188))))
(assert (forall ((x_10 R_0) (x_1187 R_0) (x_1188 R_0) (x_9 R_0) (x_1211 R_0) (x_1212 R_0))
	(plus_1 (Plus_0 (Plus_0 x_1211 x_1212) (Plus_0 x_1187 x_1188)) (Plus_0 x_1211 x_1212) (Plus_0 x_1187 x_1188))))
(assert (forall ((x_10 R_0) (x_1187 R_0) (x_1188 R_0) (x_9 R_0) (x_1213 R_0) (x_1214 R_0))
	(plus_1 (Plus_0 (Seq_0 x_1213 x_1214) (Plus_0 x_1187 x_1188)) (Seq_0 x_1213 x_1214) (Plus_0 x_1187 x_1188))))
(assert (forall ((x_10 R_0) (x_1187 R_0) (x_1188 R_0) (x_9 R_0) (x_1215 R_0))
	(plus_1 (Plus_0 (Star_0 x_1215) (Plus_0 x_1187 x_1188)) (Star_0 x_1215) (Plus_0 x_1187 x_1188))))
(assert (forall ((x_10 R_0) (x_1189 R_0) (x_1190 R_0) (x_9 R_0) (x_1216 A_0))
	(plus_1 (Plus_0 (Atom_0 x_1216) (Seq_0 x_1189 x_1190)) (Atom_0 x_1216) (Seq_0 x_1189 x_1190))))
(assert (forall ((x_10 R_0) (x_1189 R_0) (x_1190 R_0) (x_9 R_0))
	(plus_1 (Plus_0 Eps_0 (Seq_0 x_1189 x_1190)) Eps_0 (Seq_0 x_1189 x_1190))))
(assert (forall ((x_10 R_0) (x_1189 R_0) (x_1190 R_0) (x_9 R_0) (x_1217 R_0) (x_1218 R_0))
	(plus_1 (Plus_0 (Plus_0 x_1217 x_1218) (Seq_0 x_1189 x_1190)) (Plus_0 x_1217 x_1218) (Seq_0 x_1189 x_1190))))
(assert (forall ((x_10 R_0) (x_1189 R_0) (x_1190 R_0) (x_9 R_0) (x_1219 R_0) (x_1220 R_0))
	(plus_1 (Plus_0 (Seq_0 x_1219 x_1220) (Seq_0 x_1189 x_1190)) (Seq_0 x_1219 x_1220) (Seq_0 x_1189 x_1190))))
(assert (forall ((x_10 R_0) (x_1189 R_0) (x_1190 R_0) (x_9 R_0) (x_1221 R_0))
	(plus_1 (Plus_0 (Star_0 x_1221) (Seq_0 x_1189 x_1190)) (Star_0 x_1221) (Seq_0 x_1189 x_1190))))
(assert (forall ((x_10 R_0) (x_1191 R_0) (x_9 R_0) (x_1222 A_0))
	(plus_1 (Plus_0 (Atom_0 x_1222) (Star_0 x_1191)) (Atom_0 x_1222) (Star_0 x_1191))))
(assert (forall ((x_10 R_0) (x_1191 R_0) (x_9 R_0))
	(plus_1 (Plus_0 Eps_0 (Star_0 x_1191)) Eps_0 (Star_0 x_1191))))
(assert (forall ((x_10 R_0) (x_1191 R_0) (x_9 R_0) (x_1223 R_0) (x_1224 R_0))
	(plus_1 (Plus_0 (Plus_0 x_1223 x_1224) (Star_0 x_1191)) (Plus_0 x_1223 x_1224) (Star_0 x_1191))))
(assert (forall ((x_10 R_0) (x_1191 R_0) (x_9 R_0) (x_1225 R_0) (x_1226 R_0))
	(plus_1 (Plus_0 (Seq_0 x_1225 x_1226) (Star_0 x_1191)) (Seq_0 x_1225 x_1226) (Star_0 x_1191))))
(assert (forall ((x_10 R_0) (x_1191 R_0) (x_9 R_0) (x_1227 R_0))
	(plus_1 (Plus_0 (Star_0 x_1227) (Star_0 x_1191)) (Star_0 x_1227) (Star_0 x_1191))))
(assert (eqA_0 true_0 Y_0 Y_0))
(assert (eqA_0 false_0 Y_0 X_0))
(assert (eqA_0 false_0 X_0 Y_0))
(assert (eqA_0 true_0 X_0 X_0))
(assert (forall ((y_4 R_0))
	(eps_1 true_0 (Star_0 y_4))))
(assert (forall ((x_2057 Bool_0) (x_2058 Bool_0) (x_2059 Bool_0) (r_1 R_0) (q_1 R_0))
	(=> (and (eps_1 x_2058 r_1) (eps_1 x_2059 q_1) (and_0 x_2057 x_2058 x_2059)) (eps_1 x_2057 (Seq_0 r_1 q_1)))))
(assert (forall ((x_2060 Bool_0) (x_2061 Bool_0) (x_2062 Bool_0) (p_0 R_0) (q_0 R_0))
	(=> (and (eps_1 x_2061 p_0) (eps_1 x_2062 q_0) (or_0 x_2060 x_2061 x_2062)) (eps_1 x_2060 (Plus_0 p_0 q_0)))))
(assert (eps_1 true_0 Eps_0))
(assert (forall ((x_13 R_0) (x_1228 A_0))
	(eps_1 false_0 (Atom_0 x_1228))))
(assert (forall ((x_13 R_0))
	(eps_1 false_0 Nil_0)))
(assert (forall ((x_14 R_0))
	(=> (eps_1 true_0 x_14) (epsR_0 Eps_0 x_14))))
(assert (forall ((x_2068 Bool_0) (x_14 R_0))
	(=> (and (diseqBool_0 x_2068 true_0) (eps_1 x_2068 x_14)) (epsR_0 Nil_0 x_14))))
(assert (forall ((x_2070 R_0) (x_2071 R_0) (p_2 R_0) (y_5 A_0))
	(=> (and (step_0 x_2071 p_2 y_5) (seq_1 x_2070 x_2071 (Star_0 p_2))) (step_0 x_2070 (Star_0 p_2) y_5))))
(assert (forall ((x_2073 R_0) (x_2074 R_0) (x_2075 R_0) (x_2076 R_0) (x_2077 R_0) (x_2078 R_0) (r_2 R_0) (q_3 R_0) (y_5 A_0))
	(=> (and (step_0 x_2074 r_2 y_5) (seq_1 x_2075 x_2074 q_3) (epsR_0 x_2076 r_2) (step_0 x_2077 q_3 y_5) (seq_1 x_2078 x_2076 x_2077) (plus_1 x_2073 x_2075 x_2078)) (step_0 x_2073 (Seq_0 r_2 q_3) y_5))))
(assert (forall ((x_2080 R_0) (x_2081 R_0) (x_2082 R_0) (p_1 R_0) (q_2 R_0) (y_5 A_0))
	(=> (and (step_0 x_2081 p_1 y_5) (step_0 x_2082 q_2 y_5) (plus_1 x_2080 x_2081 x_2082)) (step_0 x_2080 (Plus_0 p_1 q_2) y_5))))
(assert (forall ((a_3 A_0) (y_5 A_0))
	(=> (eqA_0 true_0 a_3 y_5) (step_0 Eps_0 (Atom_0 a_3) y_5))))
(assert (forall ((x_2086 Bool_0) (a_3 A_0) (y_5 A_0))
	(=> (and (diseqBool_0 x_2086 true_0) (eqA_0 x_2086 a_3 y_5)) (step_0 Nil_0 (Atom_0 a_3) y_5))))
(assert (forall ((x_16 R_0) (y_5 A_0))
	(step_0 Nil_0 Eps_0 y_5)))
(assert (forall ((x_16 R_0) (y_5 A_0))
	(step_0 Nil_0 Nil_0 y_5)))
(assert (forall ((x_2090 Bool_0) (x_2091 R_0) (z_0 A_0) (xs_0 list_0) (x_17 R_0))
	(=> (and (step_0 x_2091 x_17 z_0) (recognise_0 x_2090 x_2091 xs_0)) (recognise_0 x_2090 x_17 (cons_0 z_0 xs_0)))))
(assert (forall ((x_2093 Bool_0) (x_17 R_0))
	(=> (eps_1 x_2093 x_17) (recognise_0 x_2093 x_17 nil_1))))
(assert (forall ((x_2096 list_0) (z_1 A_0) (xs_1 list_0) (y_7 list_0))
	(=> (x_18 x_2096 xs_1 y_7) (x_18 (cons_0 z_1 x_2096) (cons_0 z_1 xs_1) y_7))))
(assert (forall ((x_2097 list_0))
	(x_18 x_2097 nil_1 x_2097)))
(assert (forall ((x_2098 list_0) (x_2099 list_0) (y_8 A_0) (xs_2 list_0))
	(=> (and (reverse_0 x_2099 xs_2) (x_18 x_2098 x_2099 (cons_0 y_8 nil_1))) (reverse_0 x_2098 (cons_0 y_8 xs_2)))))
(assert (reverse_0 nil_1 nil_1))
(assert (forall ((x_2102 R_0) (x_2103 Bool_0) (x_2104 list_0) (x_2105 Bool_0) (r_3 R_0) (s_0 list_0))
	(=> (and (diseqBool_0 x_2103 x_2105) (rev_0 x_2102 r_3) (recognise_0 x_2103 x_2102 s_0) (reverse_0 x_2104 s_0) (recognise_0 x_2105 r_3 x_2104)) false)))
(check-sat)
(get-model)
